SimulateSamplingPython/9e0ed32a699b4d5e9309e4c1d414fa19-pulp.mps
*SENSE:Minimize
NAME          MODEL
ROWS
 N  OBJ
 L  C0000000
 L  C0000001
 G  C0000002
 L  C0000003
COLUMNS
    MARK      'MARKER'                 'INTORG'
    X0000000  C0000001   1.000000000000e+00
    X0000000  C0000002   1.000000000000e+00
    X0000000  C0000003   4.999999183558e-01
    MARK      'MARKER'                 'INTEND'
    MARK      'MARKER'                 'INTORG'
    X0000001  C0000001  -1.000000000000e+00
    X0000001  C0000002  -1.000000000000e+00
    X0000001  C0000003   5.000000816442e-01
    MARK      'MARKER'                 'INTEND'
    MARK      'MARKER'                 'INTORG'
    X0000002  C0000000   1.000000000000e+00
    X0000002  C0000001  -1.000000000000e+00
    X0000002  C0000002   1.000000000000e+00
    X0000002  C0000003  -1.000000000000e+00
    X0000002  OBJ        1.000000000000e+00
    MARK      'MARKER'                 'INTEND'
RHS
    RHS       C0000000   0.000000000000e+00
    RHS       C0000001  -1.000000000000e+00
    RHS       C0000002  -1.000000000000e+00
    RHS       C0000003   1.000000000000e+00
BOUNDS
 LO BND       X0000000  -1.539649443057e+09
 UP BND       X0000000   7.521532948880e+08
 LO BND       X0000001  -8.872583166153e+08
 UP BND       X0000001   4.139914724098e+08
 FR BND       X0000002
ENDATA
