SimulateSamplingPython/9e0ed32a699b4d5e9309e4c1d414fa19-pulp.sol
Optimal - objective value 0.00000000
      0 C0000000               0                       0
      1 C0000001              -1                       0
      2 C0000002              -1                       0
      3 C0000003      0.50000008                       0
      0 X0000000               0                       0
      1 X0000001               1                       0
      2 X0000002               0                       1
